WARNING: for repeatability, setting FPU to use double precision
============================[ Problem Statistics ]=============================
|                                                                             |
|  Number of variables:           100                                         |
|  Number of clauses:             449                                         |
|  Parse time:                   0.00 s                                       |
|  Eliminated clauses:           0.00 Mb                                      |
|  Simplification time:          0.00 s                                       |
|                                                                             |
============================[ Search Statistics ]==============================
| Conflicts |          ORIGINAL         |          LEARNT          | Progress |
|           |    Vars  Clauses Literals |    Limit  Clauses Lit/Cl |          |
===============================================================================
|       100 |      98      447     1356 |      163      100      8 |  0.010 % |
|       250 |      98      447     1356 |      180      166      6 |  0.010 % |
===============================================================================
restarts              : 3
conflicts             : 304            (81941 /sec)
decisions             : 382            (0.00 % random) (102965 /sec)
propagations          : 6534           (1761186 /sec)
conflict literals     : 2092           (17.77 % deleted)
Memory used           : 13.00 MB
CPU time              : 0.00371 s

SATISFIABLE
